
  12   12
  10   10   10   10   10   10   10   10   10   10   10   10

   0   0   0   0   0   0   0   0   0   0   0   0   0   5 2 3 4 5 11 
  10   1   0   0   0   1   0   0   0   0   0   0   0   3 10 8 6 
   7   0   0   0   0   0   0   0   1   1   0   0   0   3 9 8 6 
   3   0   0   0   0   8   0   0   0   5   1   1   0   2 8 7 
   6   0   0   0   0   5   1   0   0   0   4   8   1   1 6 
   9   0   0   0   0   6   8   1   8   6   0   0   5   1 7 
   6   9   0   0   1   0   6   9   6   0   0   0   0   1 12
   6   0   0   0   9   0   0   0   0   7   6   0   6   1 12
   5   0   0   0   0   0   0   0   0   0   9   6   0   1 12
   3   0   5   0   0   0   0   0   0   6   0   0   6   1 12
  10   0   0   0   0   0   0   0   0   0   0   5   7   1 12
   0   0   0   0   0   0   0   0   0   0   0   0   0   0 
